5757280.0
2978
0 1 4 5 7 8 9 11 12 13 14 15 17 19 21 22 23 24 25 27 29 30 32 33 34 35 36 37 38 39 40 41 44 46 48 49 50 51 52 53 54 55 56 57 59 60 61 62 63 64 65 66 68 69 70 71 74 75 78 79 80 81 83 87 89 94 102 103 105 107 109 110 112 113 114 116 117 120 121 122 123 124 128 129 130 132 133 134 135 136 137 138 139 140 141 142 143 144 146 147 148 149 150 151 152 153 154 155 156 157 158 159 160 161 162 164 165 166 167 168 169 171 173 174 176 177 178 180 181 182 183 184 187 188 190 192 193 194 195 199 